NAME : MM2_depots
COMMENT : Instance 2 in MD algorithm. Coordinates of depots and vhcl speeds given.
TYPE : TSP
DIMENSION : 10
EDGE_WEIGHT_TYPE : ATT
NODE_COORD_SECTION
201 21.2888 52.2043 1
202 59.2391 43.7700 1
203 22.9666 68.5444 1
204 39.1410 46.6052 1
205 68.7562 47.9356 1
206 39.5161 7.6577 1
207 68.0789 73.3489 1
208 55.8174 17.9064 1
209 57.6268 24.4486 1
210 63.9899 9.8381 1
EOF
